500
    1    15    15
    2    52    52
    3    64    64
    4    60    60
    5    74    74
    6    34    34
    7    95    95
    8    74    74
    9    48    48
   10    79    79
   11    37    37
   12     7     7
   13    29    29
   14    63    63
   15    43    43
   16    45    45
   17    61    61
   18    44    44
   19    78    78
   20    64    64
   21    55    55
   22     9     9
   23    83    83
   24    57    57
   25    16    16
   26     5     5
   27    84    84
   28    72    72
   29    28    28
   30    13    13
   31    28    28
   32    26    26
   33    25    25
   34    88    88
   35    40    40
   36    32    32
   37    89    89
   38    12    12
   39    30    30
   40    39    39
   41    53    53
   42    75    75
   43    23    23
   44    81    81
   45    76    76
   46    26    26
   47    54    54
   48    58    58
   49    40    40
   50    23    23
   51    16    16
   52    84    84
   53    58    58
   54    42    42
   55    55    55
   56    21    21
   57    53    53
   58    52    52
   59    95    95
   60    58    58
   61    93    93
   62    83    83
   63    63    63
   64    34    34
   65    67    67
   66    70    70
   67    13    13
   68    21    21
   69    48    48
   70     1     1
   71    13    13
   72    39    39
   73    24    24
   74    55    55
   75    48    48
   76    57    57
   77   100   100
   78    76    76
   79    34    34
   80    17    17
   81    23    23
   82    10    10
   83    57    57
   84    71    71
   85     6     6
   86    75    75
   87    45    45
   88    33    33
   89    35    35
   90    20    20
   91    94    94
   92    41    41
   93    13    13
   94     6     6
   95    29    29
   96    98    98
   97    95    95
   98    94    94
   99    52    52
  100    71    71
  101    10    10
  102     9     9
  103    96    96
  104    24    24
  105    57    57
  106    37    37
  107    24    24
  108    95    95
  109    88    88
  110    90    90
  111    39    39
  112    96    96
  113    13    13
  114     8     8
  115    54    54
  116    98    98
  117    52    52
  118    74    74
  119     6     6
  120    13    13
  121    16    16
  122    94    94
  123    78    78
  124    76    76
  125    75    75
  126    47    47
  127    74    74
  128    35    35
  129    75    75
  130    92    92
  131    84    84
  132    99    99
  133    96    96
  134    95    95
  135    94    94
  136    55    55
  137    16    16
  138    78    78
  139    29    29
  140     3     3
  141    17    17
  142    83    83
  143    13    13
  144    29    29
  145    54    54
  146    91    91
  147    59    59
  148    67    67
  149    55    55
  150    20    20
  151    52    52
  152    20    20
  153    82    82
  154    52    52
  155    83    83
  156    51    51
  157    40    40
  158    62    62
  159    38    38
  160    97    97
  161    33    33
  162    89    89
  163    49    49
  164     8     8
  165    34    34
  166    27    27
  167    97    97
  168    80    80
  169    93    93
  170    15    15
  171    97    97
  172    86    86
  173    51    51
  174     8     8
  175    76    76
  176    77    77
  177    46    46
  178    22    22
  179    71    71
  180    88    88
  181    44    44
  182    68    68
  183    48    48
  184    55    55
  185    60    60
  186    35    35
  187    87    87
  188    30    30
  189    72    72
  190    38    38
  191    37    37
  192    16    16
  193    45    45
  194    43    43
  195    20    20
  196     2     2
  197    60    60
  198    86    86
  199    44    44
  200    86    86
  201     9     9
  202    22    22
  203    64    64
  204    71    71
  205    82    82
  206    28    28
  207    12    12
  208    19    19
  209    17    17
  210    53    53
  211    90    90
  212    25    25
  213     7     7
  214    20    20
  215    98    98
  216    38    38
  217    98    98
  218    52    52
  219    53    53
  220    38    38
  221    78    78
  222    23    23
  223    39    39
  224    32    32
  225     5     5
  226    47    47
  227    73    73
  228    85    85
  229    81    81
  230    96    96
  231    22    22
  232    95    95
  233    47    47
  234    65    65
  235    77    77
  236    71    71
  237    17    17
  238     8     8
  239    28    28
  240    97    97
  241     3     3
  242    95    95
  243    40    40
  244    72    72
  245    83    83
  246    60    60
  247     2     2
  248    85    85
  249    53    53
  250    57    57
  251    70    70
  252    90    90
  253    47    47
  254    90    90
  255    15    15
  256    68    68
  257    42    42
  258    93    93
  259    39    39
  260    30    30
  261    93    93
  262    28    28
  263    37    37
  264     1     1
  265    14    14
  266    82    82
  267    16    16
  268    24    24
  269    32    32
  270    51    51
  271    38    38
  272    69    69
  273    65    65
  274    74    74
  275     6     6
  276    87    87
  277     1     1
  278    85    85
  279    48    48
  280    63    63
  281    75    75
  282    76    76
  283    44    44
  284    46    46
  285    31    31
  286    75    75
  287     3     3
  288     5     5
  289    37    37
  290    42    42
  291    58    58
  292    16    16
  293    46    46
  294    55    55
  295    47    47
  296    21    21
  297    12    12
  298    78    78
  299    26    26
  300    44    44
  301    77    77
  302    26    26
  303    12    12
  304    60    60
  305    21    21
  306    93    93
  307    44    44
  308    29    29
  309    53    53
  310    38    38
  311    92    92
  312    94    94
  313    22    22
  314    63    63
  315    91    91
  316    35    35
  317    85    85
  318    73    73
  319    29    29
  320    39    39
  321    49    49
  322    28    28
  323    82    82
  324    39    39
  325    78    78
  326    92    92
  327    73    73
  328    83    83
  329    33    33
  330    14    14
  331     6     6
  332    35    35
  333    70    70
  334    97    97
  335    79    79
  336    38    38
  337    29    29
  338    48    48
  339    45    45
  340    15    15
  341    62    62
  342    16    16
  343     5     5
  344    84    84
  345     4     4
  346    20    20
  347    17    17
  348    84    84
  349     2     2
  350    53    53
  351    50    50
  352    46    46
  353    22    22
  354     5     5
  355    77    77
  356    52    52
  357    90    90
  358    36    36
  359    27    27
  360    70    70
  361    35    35
  362    29    29
  363    56    56
  364    39    39
  365    60    60
  366    59    59
  367    68    68
  368    67    67
  369    24    24
  370    99    99
  371    29    29
  372    23    23
  373     2     2
  374    51    51
  375    81    81
  376    46    46
  377    75    75
  378    85    85
  379    13    13
  380    21    21
  381    46    46
  382    14    14
  383    54    54
  384    21    21
  385    44    44
  386    75    75
  387    48    48
  388    58    58
  389    37    37
  390    42    42
  391     5     5
  392    79    79
  393    19    19
  394    18    18
  395    93    93
  396    54    54
  397     2     2
  398    56    56
  399    61    61
  400     2     2
  401    94    94
  402    78    78
  403    52    52
  404    19    19
  405    98    98
  406    78    78
  407    46    46
  408    68    68
  409    90    90
  410    64    64
  411    16    16
  412    46    46
  413    84    84
  414    29    29
  415    73    73
  416    93    93
  417    71    71
  418    16    16
  419    93    93
  420    53    53
  421    76    76
  422     3     3
  423    59    59
  424    95    95
  425    10    10
  426    55    55
  427    72    72
  428    51    51
  429    49    49
  430    21    21
  431    43    43
  432     4     4
  433    36    36
  434    29    29
  435    75    75
  436    35    35
  437    85    85
  438    33    33
  439    18    18
  440    97    97
  441     5     5
  442    75    75
  443    16    16
  444     8     8
  445    21    21
  446    81    81
  447    19    19
  448    98    98
  449    83    83
  450    90    90
  451    35    35
  452    61    61
  453    11    11
  454     2     2
  455    25    25
  456    95    95
  457    67    67
  458     6     6
  459    70    70
  460    86    86
  461    37    37
  462    38    38
  463    54    54
  464     5     5
  465    76    76
  466    52    52
  467    50    50
  468    45    45
  469    33    33
  470    25    25
  471    87    87
  472    38    38
  473    69    69
  474    20    20
  475    65    65
  476     6     6
  477    32    32
  478    63    63
  479    16    16
  480    16    16
  481    81    81
  482    47    47
  483    35    35
  484    75    75
  485    45    45
  486    76    76
  487    91    91
  488     6     6
  489    54    54
  490    89    89
  491    66    66
  492    32    32
  493    65    65
  494    74    74
  495    93    93
  496    69    69
  497    36    36
  498    59    59
  499    32    32
  500    91    91
20948
